p tw 20 48
e 0 1
e 0 6
e 0 7
e 0 9
e 0 10
e 0 16
e 1 4
e 1 8
e 2 3
e 2 4
e 2 5
e 3 5
e 3 11
e 3 14
e 3 15
e 3 18
e 4 6
e 4 7
e 4 10
e 4 12
e 5 6
e 5 8
e 5 9
e 5 12
e 5 13
e 6 16
e 7 9
e 7 12
e 7 15
e 8 11
e 8 12
e 8 15
e 9 16
e 10 11
e 10 13
e 10 14
e 10 17
e 11 15
e 12 13
e 12 14
e 12 16
e 12 19
e 13 14
e 13 19
e 14 15
e 14 17
e 15 19
e 16 17
